c User generated cnf file
p cnf 13 73
5 6 -6 0 
-13 11 5 0 
8 -5 3 0 
7 -5 11 0 
-10 10 4 0 
-11 8 7 0 
5 -6 3 0 
13 -1 10 0 
4 -10 6 0 
1 -6 9 0 
5 -5 7 0 
1 4 -2 0 
9 -9 2 0 
12 3 -13 0 
3 -2 2 0 
4 -8 8 0 
-2 10 13 0 
10 6 -7 0 
-4 6 2 0 
-13 3 11 0 
-13 9 7 0 
11 5 -13 0 
9 -3 11 0 
12 -11 5 0 
11 7 -12 0 
3 -5 5 0 
-4 11 2 0 
9 -13 12 0 
7 3 -1 0 
-10 8 11 0 
9 2 -5 0 
-6 9 7 0 
-1 12 11 0 
-7 1 8 0 
3 4 -6 0 
7 11 -4 0 
-2 7 7 0 
8 -4 10 0 
-12 12 9 0 
10 -2 4 0 
-12 12 4 0 
10 -11 11 0 
13 -5 2 0 
5 13 -8 0 
13 -4 12 0 
-3 11 10 0 
-6 2 10 0 
3 -11 12 0 
10 2 -7 0 
12 -12 8 0 
7 12 -2 0 
1 -12 3 0 
7 10 -10 0 
2 7 -7 0 
-3 3 9 0 
-12 4 1 0 
-4 12 4 0 
1 -9 4 0 
5 -3 12 0 
1 -9 11 0 
-3 9 8 0 
11 13 -7 0 
-5 10 3 0 
13 6 -8 0 
7 5 -9 0 
11 1 -9 0 
12 10 -1 0 
-5 10 13 0 
3 -2 13 0 
1 10 -10 0 
5 11 -1 0 
7 -3 5 0 
10 -10 5 0 
